NAME:  br17b.17 
TYPE:  AHPP-TW 
COMMENT: br17.atsp + random time windows (N. Ascheuer, 1994) 
DIMENSION: 19 
EDGE_WEIGHT_TYPE: EXPLICIT 
EDGE_WEIGHT_FORMAT: FULL_MATRIX 
TIME_WINDOW_SECTION 
   1 :    0   [   0,    0]
   2 :   16   [ 115,  155]
   3 :   36   [ 123,  185]
   4 :   22   [ 214,  268]
   5 :   30   [  51,   93]
   6 :   38   [ 486,  542]
   7 :   19   [  84,  132]
   8 :   23   [   0,   64]
   9 :   34   [ 326,  388]
  10 :   30   [ 539,  589]
  11 :   38   [ 243,  289]
  12 :   26   [ 172,  208]
  13 :   31   [ 416,  454]
  14 :   22   [ 188,  244]
  15 :   26   [ 273,  341]
  16 :   17   [   0,   58]
  17 :   26   [  14,   66]
  18 :   39   [ 360,  422]
  19 :    0   [ 785, 1178]
EDGE_WEIGHT_SECTION 
  0   0   0   0   0   0   0   0   0   0   0   0   0   0   0   0   0   0   0 
  0   0   3   5  48  48   8   8   5   5   3   3   0   3   5   8   8   5   0 
  0   3   0   3  48  48   8   8   5   5   0   0   3   0   3   8   8   5   0 
  0   5   3   0  72  72  48  48  24  24   3   3   5   3   0  48  48  24   0 
  0  48  48  74   0   0   6   6  12  12  48  48  48  48  74   6   6  12   0 
  0  48  48  74   0   0   6   6  12  12  48  48  48  48  74   6   6  12   0 
  0   8   8  50   6   6   0   0   8   8   8   8   8   8  50   0   0   8   0 
  0   8   8  50   6   6   0   0   8   8   8   8   8   8  50   0   0   8   0 
  0   5   5  26  12  12   8   8   0   0   5   5   5   5  26   8   8   0   0 
  0   5   5  26  12  12   8   8   0   0   5   5   5   5  26   8   8   0   0 
  0   3   0   3  48  48   8   8   5   5   0   0   3   0   3   8   8   5   0 
  0   3   0   3  48  48   8   8   5   5   0   0   3   0   3   8   8   5   0 
  0   0   3   5  48  48   8   8   5   5   3   3   0   3   5   8   8   5   0 
  0   3   0   3  48  48   8   8   5   5   0   0   3   0   3   8   8   5   0 
  0   5   3   0  72  72  48  48  24  24   3   3   5   3   0  48  48  24   0 
  0   8   8  50   6   6   0   0   8   8   8   8   8   8  50   0   0   8   0 
  0   8   8  50   6   6   0   0   8   8   8   8   8   8  50   0   0   8   0 
  0   5   5  26  12  12   8   8   0   0   5   5   5   5  26   8   8   0   0 
  0   0   0   0   0   0   0   0   0   0   0   0   0   0   0   0   0   0   0 
EOF 
